Route #1: 394 902 604 742 298 119 610 23 524 
Route #2: 473 109 77 417 424 90 395 519 728 65 186 
Route #3: 544 278 511 308 191 712 898 979 915 732 
Route #4: 615 667 808 926 964 988 277 286 824 
Route #5: 488 800 211 359 442 804 715 888 923 355 
Route #6: 856 758 478 410 5 477 644 25 1000 
Route #7: 997 87 585 365 120 521 996 
Route #8: 836 69 694 796 951 495 420 566 21 583 
Route #9: 231 1 70 166 515 307 687 617 273 717 
Route #10: 924 155 224 590 312 702 199 737 873 576 676 
Route #11: 638 72 573 337 613 947 588 439 751 
Route #12: 130 725 612 904 855 13 78 794 971 628 376 817 
Route #13: 183 36 663 714 561 498 438 22 311 893 266 
Route #14: 981 125 954 404 39 782 256 857 510 
Route #15: 581 933 52 335 368 654 918 530 444 699 59 140 
Route #16: 577 533 329 249 945 20 46 689 138 905 225 946 
Route #17: 968 745 218 371 643 143 844 956 661 
Cost: 248625
